p tw 122 127
1 2
2 35
3 14
4 5
5 6
6 26
7 8
8 9
9 10
10 11
11 12
12 26
13 15
14 25
15 16
15 20
16 17
17 18
18 19
19 26
20 21
21 22
22 23
23 24
24 26
25 28
26 27
28 29
29 30
30 31
31 32
32 33
32 36
33 34
34 38
35 46
36 37
37 38
38 39
39 40
40 41
41 42
42 43
43 44
44 45
45 47
46 57
47 48
48 49
49 50
50 51
51 52
52 53
53 54
54 55
55 56
56 58
57 68
58 59
59 60
60 61
61 62
62 63
63 64
64 65
65 66
66 67
67 69
68 79
69 70
70 71
71 72
72 73
73 74
74 75
75 76
76 77
77 78
78 80
79 90
80 81
81 82
82 83
82 86
83 84
84 85
85 117
86 87
87 88
88 89
89 91
90 101
90 3
91 92
92 93
93 94
94 95
95 96
96 97
97 98
98 99
99 100
100 102
101 112
102 103
103 104
104 105
105 106
106 107
107 108
108 109
109 110
110 111
111 113
112 26
113 114
114 115
115 116
116 117
117 118
118 119
119 120
119 13
120 121
120 7
121 122
122 4
